param n := 249;
param c := 1000;
param : V : p w :=
   0	 411	 401
   1	 262	 252
   2	 357	 347
   3	 394	 384
   4	 268	 258
   5	 368	 358
   6	 461	 451
   7	 278	 268
   8	 291	 281
   9	 417	 407
  10	 302	 292
  11	 311	 301
  12	 415	 405
  13	 281	 271
  14	 334	 324
  15	 399	 389
  16	 302	 292
  17	 329	 319
  18	 440	 430
  19	 276	 266
  20	 314	 304
  21	 478	 468
  22	 269	 259
  23	 283	 273
  24	 470	 460
  25	 271	 261
  26	 289	 279
  27	 496	 486
  28	 260	 250
  29	 274	 264
  30	 416	 406
  31	 264	 254
  32	 350	 340
  33	 390	 380
  34	 317	 307
  35	 323	 313
  36	 460	 450
  37	 281	 271
  38	 289	 279
  39	 391	 381
  40	 285	 275
  41	 354	 344
  42	 421	 411
  43	 263	 253
  44	 346	 336
  45	 371	 361
  46	 274	 264
  47	 385	 375
  48	 440	 430
  49	 276	 266
  50	 314	 304
  51	 402	 392
  52	 271	 261
  53	 357	 347
  54	 429	 419
  55	 288	 278
  56	 313	 303
  57	 475	 465
  58	 268	 258
  59	 287	 277
  60	 505	 495
  61	 260	 250
  62	 265	 255
  63	 428	 418
  64	 287	 277
  65	 315	 305
  66	 387	 377
  67	 302	 292
  68	 341	 331
  69	 436	 426
  70	 270	 260
  71	 324	 314
  72	 422	 412
  73	 271	 261
  74	 337	 327
  75	 504	 494
  76	 260	 250
  77	 266	 256
  78	 389	 379
  79	 313	 303
  80	 328	 318
  81	 498	 488
  82	 264	 254
  83	 268	 258
  84	 390	 380
  85	 262	 252
  86	 378	 368
  87	 478	 468
  88	 271	 261
  89	 281	 271
  90	 364	 354
  91	 297	 287
  92	 369	 359
  93	 509	 499
  94	 260	 250
  95	 261	 251
  96	 453	 443
  97	 268	 258
  98	 309	 299
  99	 507	 497
 100	 261	 251
 101	 262	 252
 102	 405	 395
 103	 306	 296
 104	 319	 309
 105	 466	 456
 106	 271	 261
 107	 293	 283
 108	 381	 371
 109	 284	 274
 110	 365	 355
 111	 490	 480
 112	 264	 254
 113	 276	 266
 114	 481	 471
 115	 262	 252
 116	 287	 277
 117	 414	 404
 118	 265	 255
 119	 351	 341
 120	 478	 468
 121	 272	 262
 122	 280	 270
 123	 427	 417
 124	 297	 287
 125	 306	 296
 126	 435	 425
 127	 294	 284
 128	 301	 291
 129	 471	 461
 130	 265	 255
 131	 294	 284
 132	 498	 488
 133	 263	 253
 134	 269	 259
 135	 427	 417
 136	 269	 259
 137	 334	 324
 138	 450	 440
 139	 274	 264
 140	 306	 296
 141	 446	 436
 142	 270	 260
 143	 314	 304
 144	 384	 374
 145	 299	 289
 146	 347	 337
 147	 402	 392
 148	 288	 278
 149	 340	 330
 150	 499	 489
 151	 265	 255
 152	 266	 256
 153	 393	 383
 154	 277	 267
 155	 360	 350
 156	 425	 415
 157	 295	 285
 158	 310	 300
 159	 406	 396
 160	 279	 269
 161	 345	 335
 162	 482	 472
 163	 272	 262
 164	 276	 266
 165	 430	 420
 166	 269	 259
 167	 331	 321
 168	 508	 498
 169	 260	 250
 170	 262	 252
 171	 454	 444
 172	 263	 253
 173	 313	 303
 174	 443	 433
 175	 280	 270
 176	 307	 297
 177	 457	 447
 178	 272	 262
 179	 301	 291
 180	 365	 355
 181	 264	 254
 182	 401	 391
 183	 486	 476
 184	 268	 258
 185	 276	 266
 186	 472	 462
 187	 272	 262
 188	 286	 276
 189	 478	 468
 190	 264	 254
 191	 288	 278
 192	 387	 377
 193	 268	 258
 194	 375	 365
 195	 440	 430
 196	 276	 266
 197	 314	 304
 198	 459	 449
 199	 278	 268
 200	 293	 283
 201	 459	 449
 202	 266	 256
 203	 305	 295
 204	 478	 468
 205	 266	 256
 206	 286	 276
 207	 422	 412
 208	 263	 253
 209	 345	 335
 210	 508	 498
 211	 260	 250
 212	 262	 252
 213	 480	 470
 214	 269	 259
 215	 281	 271
 216	 386	 376
 217	 315	 305
 218	 329	 319
 219	 406	 396
 220	 292	 282
 221	 332	 322
 222	 429	 419
 223	 278	 268
 224	 323	 313
 225	 472	 462
 226	 264	 254
 227	 294	 284
 228	 380	 370
 229	 308	 298
 230	 342	 332
 231	 362	 352
 232	 293	 283
 233	 375	 365
 234	 373	 363
 235	 264	 254
 236	 393	 383
 237	 437	 427
 238	 294	 284
 239	 299	 289
 240	 480	 470
 241	 264	 254
 242	 286	 276
 243	 470	 460
 244	 270	 260
 245	 290	 280
 246	 407	 397
 247	 263	 253
 248	 360	 350
;

set E :=
   0	   3
   0	  24
   0	  32
   0	  36
   0	  57
   0	  64
   0	  69
   0	  70
   0	  86
   0	  89
   0	  93
   0	  94
   0	 109
   0	 111
   0	 117
   0	 128
   0	 129
   0	 134
   0	 136
   0	 150
   0	 157
   0	 159
   0	 162
   0	 179
   0	 204
   0	 206
   0	 216
   0	 226
   0	 233
   0	 236
   0	 243
   0	 245
   1	   6
   1	   9
   1	  29
   1	  32
   1	  42
   1	  70
   1	  78
   1	  92
   1	 128
   1	 138
   1	 140
   1	 169
   1	 182
   1	 186
   1	 191
   1	 203
   1	 226
   1	 229
   1	 232
   1	 234
   1	 240
   2	  12
   2	  19
   2	  24
   2	  27
   2	  43
   2	  45
   2	  53
   2	  70
   2	  74
   2	  82
   2	  85
   2	  86
   2	 101
   2	 149
   2	 151
   2	 154
   2	 166
   2	 190
   2	 205
   2	 206
   2	 207
   2	 213
   2	 227
   3	  16
   3	  27
   3	  35
   3	  40
   3	  43
   3	  44
   3	  45
   3	  60
   3	  69
   3	  71
   3	  78
   3	  80
   3	  82
   3	  87
   3	  95
   3	 120
   3	 135
   3	 141
   3	 148
   3	 150
   3	 157
   3	 158
   3	 160
   3	 161
   3	 166
   3	 176
   3	 199
   3	 214
   3	 226
   3	 242
   4	  18
   4	  21
   4	  32
   4	  36
   4	  37
   4	  40
   4	  61
   4	  62
   4	  68
   4	  69
   4	  81
   4	  82
   4	  89
   4	  97
   4	 113
   4	 115
   4	 118
   4	 134
   4	 139
   4	 144
   4	 152
   4	 153
   4	 158
   4	 159
   4	 160
   4	 163
   4	 169
   4	 172
   4	 177
   4	 181
   4	 195
   4	 222
   4	 223
   4	 240
   4	 242
   5	   8
   5	  21
   5	  41
   5	  53
   5	 104
   5	 121
   5	 132
   5	 135
   5	 142
   5	 143
   5	 149
   5	 150
   5	 152
   5	 155
   5	 160
   5	 165
   5	 174
   5	 181
   5	 186
   5	 191
   5	 193
   5	 214
   5	 240
   5	 241
   6	  41
   6	  58
   6	  66
   6	  77
   6	  79
   6	  88
   6	  89
   6	  96
   6	 101
   6	 116
   6	 118
   6	 135
   6	 160
   6	 165
   6	 168
   6	 188
   6	 192
   6	 196
   6	 214
   6	 221
   6	 228
   6	 231
   7	  12
   7	  15
   7	  16
   7	  22
   7	  26
   7	  27
   7	  45
   7	  60
   7	  61
   7	  73
   7	  76
   7	  77
   7	  81
   7	 108
   7	 136
   7	 139
   7	 140
   7	 143
   7	 148
   7	 149
   7	 158
   7	 159
   7	 180
   7	 182
   7	 189
   7	 209
   7	 211
   7	 223
   7	 228
   7	 233
   7	 246
   7	 247
   8	  29
   8	  38
   8	  44
   8	  53
   8	  57
   8	  76
   8	  90
   8	  99
   8	 101
   8	 108
   8	 134
   8	 150
   8	 182
   8	 187
   8	 236
   8	 239
   8	 244
   9	  21
   9	  35
   9	  59
   9	  65
   9	  73
   9	  85
   9	  92
   9	 104
   9	 110
   9	 125
   9	 137
   9	 138
   9	 148
   9	 150
   9	 166
   9	 180
   9	 216
   9	 217
   9	 227
   9	 236
   9	 242
  10	  12
  10	  47
  10	  52
  10	  57
  10	  58
  10	  66
  10	  79
  10	  86
  10	  96
  10	  98
  10	 103
  10	 106
  10	 112
  10	 122
  10	 167
  10	 173
  10	 179
  10	 182
  10	 194
  10	 198
  10	 199
  10	 200
  10	 207
  10	 208
  10	 213
  10	 216
  10	 226
  10	 228
  10	 236
  11	  32
  11	  53
  11	  60
  11	  68
  11	  71
  11	  77
  11	  88
  11	  94
  11	  97
  11	 127
  11	 139
  11	 141
  11	 145
  11	 152
  11	 161
  11	 173
  11	 174
  11	 175
  11	 189
  11	 212
  11	 225
  11	 248
  12	  19
  12	  22
  12	  28
  12	  50
  12	  56
  12	  90
  12	 123
  12	 124
  12	 125
  12	 166
  12	 175
  12	 194
  12	 207
  12	 210
  12	 212
  12	 223
  12	 232
  12	 237
  12	 239
  12	 241
  13	  41
  13	  45
  13	  53
  13	  57
  13	  71
  13	  81
  13	  89
  13	  92
  13	  97
  13	 118
  13	 121
  13	 122
  13	 128
  13	 136
  13	 150
  13	 170
  13	 180
  13	 191
  13	 229
  13	 231
  13	 233
  14	  16
  14	  21
  14	  40
  14	  41
  14	  45
  14	  57
  14	  66
  14	  89
  14	  92
  14	 127
  14	 138
  14	 141
  14	 144
  14	 160
  14	 166
  14	 168
  14	 172
  14	 177
  14	 189
  14	 190
  14	 200
  14	 227
  14	 231
  15	  24
  15	  31
  15	  35
  15	  47
  15	  61
  15	  67
  15	  70
  15	  81
  15	 105
  15	 107
  15	 114
  15	 149
  15	 150
  15	 166
  15	 170
  15	 171
  15	 183
  15	 185
  15	 188
  15	 215
  15	 232
  15	 233
  15	 237
  15	 242
  16	  21
  16	  23
  16	  33
  16	  58
  16	  72
  16	  95
  16	  97
  16	  98
  16	 117
  16	 118
  16	 124
  16	 145
  16	 160
  16	 165
  16	 170
  16	 201
  16	 210
  16	 225
  16	 229
  16	 237
  16	 243
  16	 246
  17	  19
  17	  22
  17	  24
  17	  44
  17	  46
  17	  48
  17	  72
  17	  77
  17	  78
  17	  81
  17	  82
  17	  89
  17	  91
  17	  94
  17	 104
  17	 105
  17	 113
  17	 126
  17	 135
  17	 136
  17	 144
  17	 151
  17	 161
  17	 167
  17	 168
  17	 176
  17	 187
  17	 205
  17	 222
  17	 230
  18	  22
  18	  27
  18	  31
  18	  56
  18	  64
  18	  72
  18	  89
  18	  92
  18	  96
  18	 127
  18	 139
  18	 174
  18	 177
  18	 185
  18	 202
  18	 216
  18	 221
  18	 230
  18	 231
  18	 244
  19	  23
  19	  29
  19	  30
  19	  33
  19	  35
  19	  45
  19	  60
  19	  67
  19	  69
  19	  71
  19	  83
  19	 108
  19	 114
  19	 127
  19	 140
  19	 143
  19	 156
  19	 177
  19	 192
  19	 206
  19	 207
  19	 208
  19	 213
  19	 226
  19	 239
  20	  21
  20	  24
  20	  28
  20	  39
  20	  46
  20	  48
  20	  69
  20	  76
  20	  95
  20	  97
  20	 108
  20	 110
  20	 118
  20	 124
  20	 126
  20	 128
  20	 138
  20	 145
  20	 158
  20	 160
  20	 204
  20	 214
  20	 229
  20	 241
  20	 243
  21	  23
  21	  31
  21	  47
  21	  50
  21	  63
  21	  65
  21	  71
  21	  77
  21	  87
  21	 104
  21	 108
  21	 109
  21	 135
  21	 136
  21	 155
  21	 201
  21	 231
  21	 242
  21	 245
  22	  26
  22	  39
  22	  44
  22	  49
  22	  58
  22	  64
  22	 105
  22	 114
  22	 127
  22	 129
  22	 137
  22	 141
  22	 142
  22	 149
  22	 154
  22	 157
  22	 169
  22	 172
  22	 182
  22	 213
  22	 217
  22	 226
  22	 236
  22	 243
  22	 248
  23	  43
  23	  64
  23	  76
  23	  81
  23	  82
  23	  95
  23	 103
  23	 108
  23	 112
  23	 141
  23	 152
  23	 155
  23	 178
  23	 194
  23	 198
  23	 203
  23	 205
  23	 208
  23	 211
  23	 216
  23	 227
  23	 237
  24	  37
  24	  47
  24	  73
  24	  76
  24	  87
  24	  88
  24	  89
  24	  92
  24	 102
  24	 106
  24	 108
  24	 111
  24	 117
  24	 123
  24	 143
  24	 144
  24	 145
  24	 153
  24	 164
  24	 167
  24	 186
  24	 191
  24	 215
  24	 217
  24	 219
  24	 225
  24	 233
  25	  31
  25	  74
  25	  81
  25	 101
  25	 133
  25	 142
  25	 143
  25	 156
  25	 162
  25	 172
  25	 183
  25	 184
  25	 195
  25	 198
  25	 200
  25	 212
  25	 220
  25	 244
  26	  28
  26	  47
  26	  54
  26	  55
  26	  63
  26	  85
  26	  97
  26	 112
  26	 150
  26	 191
  26	 204
  26	 213
  26	 232
  26	 233
  27	  44
  27	  89
  27	  96
  27	 126
  27	 127
  27	 136
  27	 147
  27	 171
  27	 176
  27	 181
  27	 183
  27	 188
  27	 200
  27	 207
  27	 214
  27	 217
  27	 224
  27	 246
  28	  31
  28	  36
  28	  46
  28	  74
  28	  77
  28	  78
  28	  96
  28	 101
  28	 107
  28	 123
  28	 149
  28	 154
  28	 168
  29	  34
  29	  67
  29	  70
  29	  96
  29	 113
  29	 125
  29	 135
  29	 145
  29	 157
  29	 159
  29	 161
  29	 164
  29	 222
  29	 225
  30	  35
  30	  37
  30	  41
  30	  68
  30	  71
  30	  75
  30	  78
  30	  83
  30	  99
  30	 102
  30	 105
  30	 112
  30	 118
  30	 122
  30	 131
  30	 140
  30	 144
  30	 149
  30	 172
  30	 180
  30	 187
  30	 191
  30	 196
  30	 203
  30	 211
  30	 213
  30	 217
  30	 229
  30	 235
  30	 239
  30	 242
  31	  36
  31	  45
  31	  58
  31	  63
  31	  64
  31	  79
  31	 109
  31	 110
  31	 117
  31	 137
  31	 148
  31	 150
  31	 153
  31	 161
  31	 167
  31	 175
  31	 178
  31	 190
  31	 204
  31	 212
  31	 213
  31	 224
  31	 227
  31	 229
  31	 230
  31	 240
  32	  34
  32	  37
  32	  38
  32	  41
  32	  45
  32	  74
  32	  84
  32	 111
  32	 116
  32	 118
  32	 131
  32	 155
  32	 158
  32	 163
  32	 190
  32	 197
  32	 199
  32	 208
  32	 224
  32	 236
  32	 237
  32	 238
  32	 246
  33	  37
  33	  57
  33	  82
  33	  87
  33	  99
  33	 101
  33	 104
  33	 116
  33	 124
  33	 134
  33	 136
  33	 139
  33	 161
  33	 162
  33	 169
  33	 209
  33	 214
  33	 219
  33	 225
  33	 226
  33	 227
  33	 232
  33	 244
  33	 245
  33	 247
  34	  37
  34	  43
  34	  48
  34	  58
  34	  60
  34	  81
  34	  88
  34	 100
  34	 102
  34	 108
  34	 116
  34	 125
  34	 156
  34	 165
  34	 177
  34	 186
  34	 188
  34	 193
  34	 214
  34	 229
  34	 238
  35	  38
  35	  41
  35	  50
  35	  53
  35	  57
  35	  59
  35	  60
  35	  74
  35	  78
  35	  87
  35	  91
  35	 105
  35	 107
  35	 112
  35	 114
  35	 139
  35	 151
  35	 179
  35	 197
  35	 198
  35	 202
  35	 203
  35	 216
  35	 220
  35	 225
  35	 246
  36	  49
  36	  53
  36	  61
  36	  77
  36	  92
  36	 105
  36	 118
  36	 125
  36	 131
  36	 155
  36	 157
  36	 176
  36	 177
  36	 194
  36	 198
  36	 200
  36	 202
  36	 209
  36	 213
  36	 224
  36	 225
  36	 234
  36	 242
  36	 243
  36	 245
  37	  38
  37	  42
  37	  43
  37	  50
  37	  57
  37	  66
  37	  93
  37	  99
  37	 101
  37	 107
  37	 123
  37	 137
  37	 140
  37	 212
  37	 213
  37	 229
  37	 235
  37	 240
  37	 245
  38	  42
  38	  67
  38	  75
  38	  86
  38	  97
  38	  98
  38	 130
  38	 141
  38	 146
  38	 148
  38	 167
  38	 170
  38	 192
  38	 202
  38	 219
  38	 220
  38	 228
  38	 242
  38	 245
  39	  46
  39	  51
  39	  59
  39	  63
  39	  64
  39	  82
  39	  93
  39	 102
  39	 119
  39	 124
  39	 144
  39	 145
  39	 147
  39	 160
  39	 163
  39	 167
  39	 168
  39	 172
  39	 203
  39	 205
  39	 217
  39	 222
  39	 247
  40	  47
  40	  71
  40	  72
  40	  97
  40	 100
  40	 101
  40	 113
  40	 132
  40	 144
  40	 157
  40	 166
  40	 169
  40	 180
  40	 202
  40	 213
  40	 219
  40	 224
  40	 239
  40	 240
  41	  59
  41	  72
  41	  85
  41	  94
  41	 103
  41	 111
  41	 125
  41	 140
  41	 147
  41	 152
  41	 162
  41	 166
  41	 185
  41	 189
  41	 205
  41	 207
  41	 232
  42	  53
  42	  62
  42	  69
  42	  73
  42	  85
  42	  98
  42	 122
  42	 128
  42	 130
  42	 131
  42	 143
  42	 144
  42	 148
  42	 160
  42	 162
  42	 170
  42	 179
  42	 180
  42	 191
  42	 193
  42	 196
  42	 237
  42	 239
  42	 241
  42	 243
  42	 244
  43	  68
  43	  74
  43	  80
  43	  83
  43	 105
  43	 112
  43	 119
  43	 156
  43	 173
  43	 179
  43	 186
  43	 190
  43	 204
  43	 245
  44	  47
  44	  51
  44	  56
  44	  74
  44	  89
  44	 101
  44	 103
  44	 109
  44	 117
  44	 123
  44	 125
  44	 130
  44	 155
  44	 159
  44	 169
  44	 181
  44	 182
  44	 198
  44	 223
  44	 239
  45	  67
  45	  72
  45	  91
  45	  92
  45	  93
  45	  95
  45	  99
  45	 101
  45	 105
  45	 109
  45	 204
  45	 229
  45	 235
  45	 238
  46	  54
  46	  55
  46	  58
  46	  64
  46	  78
  46	  79
  46	 100
  46	 113
  46	 114
  46	 122
  46	 136
  46	 146
  46	 147
  46	 158
  46	 171
  46	 175
  46	 199
  46	 200
  46	 208
  46	 209
  46	 218
  46	 224
  46	 232
  46	 242
  46	 246
  47	  65
  47	  66
  47	  73
  47	  77
  47	  79
  47	  84
  47	  95
  47	  98
  47	 107
  47	 110
  47	 125
  47	 132
  47	 170
  47	 177
  47	 180
  47	 182
  47	 183
  47	 184
  47	 185
  47	 224
  48	  50
  48	  54
  48	  55
  48	  59
  48	  61
  48	  70
  48	  82
  48	  83
  48	  92
  48	 104
  48	 113
  48	 116
  48	 126
  48	 129
  48	 130
  48	 140
  48	 154
  48	 161
  48	 168
  48	 175
  48	 195
  48	 209
  48	 214
  48	 217
  48	 228
  48	 234
  48	 242
  49	  57
  49	  74
  49	  81
  49	 103
  49	 106
  49	 111
  49	 112
  49	 113
  49	 118
  49	 127
  49	 129
  49	 148
  49	 172
  49	 175
  49	 181
  49	 182
  49	 184
  49	 195
  49	 201
  49	 202
  49	 224
  49	 233
  49	 238
  49	 241
  49	 245
  50	  51
  50	  74
  50	  77
  50	  87
  50	 118
  50	 132
  50	 158
  50	 189
  50	 206
  50	 209
  50	 217
  50	 222
  50	 236
  50	 237
  50	 239
  50	 242
  51	  57
  51	  58
  51	  69
  51	  74
  51	  75
  51	  76
  51	  79
  51	  80
  51	  91
  51	  96
  51	 103
  51	 113
  51	 118
  51	 132
  51	 141
  51	 145
  51	 156
  51	 165
  51	 191
  51	 193
  51	 195
  51	 201
  51	 203
  51	 205
  51	 211
  51	 237
  51	 240
  51	 241
  51	 242
  52	  55
  52	  83
  52	  91
  52	  95
  52	 101
  52	 107
  52	 112
  52	 128
  52	 135
  52	 136
  52	 142
  52	 146
  52	 149
  52	 153
  52	 160
  52	 183
  52	 196
  52	 200
  52	 212
  52	 224
  52	 246
  53	  57
  53	 100
  53	 111
  53	 120
  53	 131
  53	 132
  53	 148
  53	 157
  53	 174
  53	 180
  53	 189
  53	 190
  53	 201
  53	 203
  53	 209
  53	 210
  53	 211
  53	 212
  53	 213
  53	 214
  53	 219
  53	 242
  53	 244
  54	  69
  54	  80
  54	  87
  54	  90
  54	 113
  54	 126
  54	 129
  54	 135
  54	 152
  54	 156
  54	 161
  54	 167
  54	 171
  54	 176
  54	 179
  54	 224
  54	 227
  54	 230
  54	 235
  54	 243
  54	 248
  55	  58
  55	  82
  55	  96
  55	 108
  55	 110
  55	 138
  55	 140
  55	 147
  55	 163
  55	 177
  55	 190
  55	 192
  55	 195
  55	 210
  55	 212
  55	 214
  55	 215
  55	 219
  55	 222
  55	 241
  56	  66
  56	  67
  56	  70
  56	  76
  56	  79
  56	  80
  56	  82
  56	  87
  56	 132
  56	 135
  56	 137
  56	 139
  56	 141
  56	 154
  56	 171
  56	 177
  56	 186
  56	 227
  56	 244
  57	  68
  57	  72
  57	  73
  57	  84
  57	  88
  57	 117
  57	 118
  57	 146
  57	 160
  57	 170
  57	 173
  57	 194
  57	 202
  57	 205
  57	 208
  57	 209
  57	 219
  57	 237
  57	 238
  57	 243
  58	  71
  58	  82
  58	  83
  58	  99
  58	 109
  58	 116
  58	 124
  58	 145
  58	 148
  58	 162
  58	 185
  58	 195
  58	 206
  58	 215
  58	 216
  58	 218
  58	 227
  59	  66
  59	  73
  59	  80
  59	 102
  59	 111
  59	 121
  59	 124
  59	 133
  59	 134
  59	 156
  59	 162
  59	 163
  59	 175
  59	 177
  59	 185
  59	 193
  59	 199
  59	 205
  59	 245
  60	  62
  60	  67
  60	  69
  60	  72
  60	  83
  60	  89
  60	  97
  60	 104
  60	 106
  60	 109
  60	 117
  60	 128
  60	 131
  60	 138
  60	 139
  60	 146
  60	 154
  60	 156
  60	 162
  60	 163
  60	 173
  60	 185
  60	 190
  60	 199
  60	 206
  60	 218
  61	  73
  61	  92
  61	 102
  61	 106
  61	 117
  61	 127
  61	 132
  61	 136
  61	 154
  61	 158
  61	 167
  61	 177
  61	 179
  61	 181
  61	 214
  61	 232
  61	 241
  61	 245
  62	  66
  62	  67
  62	  79
  62	  89
  62	  92
  62	 102
  62	 121
  62	 135
  62	 145
  62	 156
  62	 171
  62	 177
  62	 199
  62	 211
  62	 212
  63	  70
  63	  83
  63	 102
  63	 106
  63	 113
  63	 119
  63	 145
  63	 146
  63	 148
  63	 174
  63	 180
  63	 194
  63	 223
  63	 228
  63	 240
  64	  66
  64	  80
  64	  87
  64	  93
  64	 131
  64	 148
  64	 150
  64	 187
  64	 190
  64	 222
  64	 224
  64	 232
  64	 236
  64	 247
  65	  67
  65	  82
  65	  94
  65	 110
  65	 130
  65	 131
  65	 154
  65	 165
  65	 168
  65	 193
  65	 200
  65	 210
  65	 214
  65	 220
  65	 237
  65	 240
  66	  71
  66	  87
  66	  89
  66	  91
  66	 105
  66	 112
  66	 115
  66	 118
  66	 128
  66	 132
  66	 141
  66	 142
  66	 145
  66	 157
  66	 165
  66	 176
  66	 191
  66	 209
  66	 226
  66	 238
  67	  68
  67	  90
  67	  95
  67	 104
  67	 105
  67	 110
  67	 116
  67	 127
  67	 128
  67	 131
  67	 145
  67	 156
  67	 166
  67	 190
  67	 236
  68	  92
  68	  94
  68	 101
  68	 161
  68	 185
  68	 193
  68	 212
  68	 225
  68	 243
  68	 244
  69	  71
  69	  75
  69	  76
  69	  89
  69	 112
  69	 123
  69	 128
  69	 130
  69	 135
  69	 137
  69	 146
  69	 160
  69	 176
  69	 181
  69	 190
  69	 204
  69	 208
  69	 212
  69	 238
  69	 247
  70	  74
  70	  83
  70	 118
  70	 126
  70	 140
  70	 158
  70	 165
  70	 169
  70	 170
  70	 200
  70	 203
  70	 211
  70	 242
  71	  76
  71	  84
  71	  87
  71	  99
  71	 109
  71	 113
  71	 118
  71	 131
  71	 143
  71	 152
  71	 163
  71	 198
  71	 230
  71	 237
  72	  74
  72	  80
  72	  85
  72	  97
  72	 102
  72	 144
  72	 157
  72	 184
  72	 188
  72	 196
  72	 208
  72	 214
  73	  74
  73	  76
  73	  81
  73	  89
  73	 103
  73	 118
  73	 123
  73	 125
  73	 126
  73	 141
  73	 158
  73	 166
  73	 176
  73	 186
  73	 201
  73	 203
  73	 206
  73	 217
  73	 239
  73	 243
  74	  78
  74	  86
  74	  98
  74	 109
  74	 111
  74	 161
  74	 181
  74	 186
  74	 188
  74	 201
  74	 228
  75	 114
  75	 118
  75	 129
  75	 133
  75	 135
  75	 149
  75	 196
  75	 236
  75	 241
  75	 248
  76	  80
  76	  82
  76	  90
  76	  94
  76	  97
  76	 104
  76	 110
  76	 116
  76	 117
  76	 142
  76	 153
  76	 160
  76	 163
  76	 180
  76	 183
  76	 200
  76	 201
  76	 221
  77	  81
  77	  82
  77	  98
  77	 109
  77	 124
  77	 134
  77	 141
  77	 154
  77	 163
  77	 167
  77	 175
  77	 191
  77	 217
  77	 239
  78	  80
  78	  82
  78	  86
  78	  99
  78	 101
  78	 105
  78	 123
  78	 125
  78	 158
  78	 164
  78	 168
  78	 177
  78	 186
  78	 188
  78	 190
  78	 193
  78	 197
  78	 203
  78	 208
  78	 210
  78	 233
  78	 235
  78	 236
  79	  80
  79	  99
  79	 110
  79	 111
  79	 112
  79	 120
  79	 123
  79	 133
  79	 138
  79	 144
  79	 162
  79	 171
  79	 180
  79	 215
  79	 221
  79	 235
  80	  84
  80	  93
  80	  94
  80	  96
  80	  98
  80	  99
  80	 100
  80	 107
  80	 113
  80	 115
  80	 136
  80	 141
  80	 184
  80	 199
  80	 206
  80	 241
  80	 245
  81	  88
  81	 111
  81	 113
  81	 115
  81	 130
  81	 133
  81	 149
  81	 152
  81	 154
  81	 190
  81	 214
  81	 216
  81	 224
  81	 228
  82	  94
  82	  98
  82	 107
  82	 108
  82	 111
  82	 112
  82	 120
  82	 135
  82	 142
  82	 146
  82	 155
  82	 162
  82	 167
  82	 169
  82	 181
  82	 183
  82	 193
  82	 211
  82	 223
  83	  95
  83	  99
  83	 120
  83	 121
  83	 142
  83	 152
  83	 164
  83	 190
  83	 214
  83	 226
  83	 232
  83	 247
  84	  95
  84	 110
  84	 115
  84	 117
  84	 127
  84	 157
  84	 158
  84	 161
  84	 163
  84	 164
  84	 180
  84	 183
  84	 184
  84	 186
  84	 187
  84	 188
  84	 193
  84	 221
  84	 241
  84	 247
  85	  95
  85	 129
  85	 136
  85	 138
  85	 146
  85	 148
  85	 164
  85	 167
  85	 169
  85	 171
  85	 174
  85	 178
  85	 179
  85	 186
  85	 193
  85	 194
  85	 205
  85	 210
  85	 221
  85	 225
  85	 231
  85	 244
  86	  92
  86	  93
  86	 100
  86	 112
  86	 128
  86	 153
  86	 158
  86	 183
  86	 210
  86	 211
  86	 218
  86	 229
  86	 234
  86	 237
  87	  95
  87	 102
  87	 106
  87	 117
  87	 128
  87	 132
  87	 142
  87	 153
  87	 167
  87	 171
  87	 174
  87	 178
  87	 195
  87	 236
  87	 244
  88	 110
  88	 112
  88	 115
  88	 119
  88	 120
  88	 122
  88	 133
  88	 138
  88	 143
  88	 150
  88	 159
  88	 161
  88	 175
  88	 192
  88	 196
  88	 227
  88	 228
  89	 106
  89	 111
  89	 112
  89	 115
  89	 139
  89	 140
  89	 153
  89	 157
  89	 161
  89	 169
  89	 199
  89	 204
  89	 205
  89	 227
  89	 230
  90	  94
  90	 106
  90	 110
  90	 117
  90	 137
  90	 149
  90	 166
  90	 196
  90	 207
  90	 248
  91	 100
  91	 109
  91	 111
  91	 120
  91	 128
  91	 135
  91	 143
  91	 144
  91	 150
  91	 151
  91	 154
  91	 159
  91	 161
  91	 182
  91	 188
  91	 207
  91	 219
  91	 235
  91	 240
  92	  97
  92	 105
  92	 131
  92	 135
  92	 137
  92	 139
  92	 145
  92	 148
  92	 164
  92	 183
  92	 184
  92	 188
  92	 190
  92	 193
  92	 206
  92	 207
  92	 208
  92	 228
  92	 233
  92	 234
  92	 244
  93	 100
  93	 110
  93	 135
  93	 139
  93	 142
  93	 146
  93	 153
  93	 157
  93	 164
  93	 165
  93	 170
  93	 174
  93	 184
  93	 192
  93	 196
  93	 206
  93	 218
  93	 223
  93	 236
  94	  96
  94	 112
  94	 139
  94	 142
  94	 145
  94	 157
  94	 171
  94	 172
  94	 176
  94	 180
  94	 191
  94	 193
  94	 207
  94	 218
  94	 229
  94	 248
  95	  98
  95	 102
  95	 112
  95	 119
  95	 120
  95	 124
  95	 129
  95	 149
  95	 173
  95	 186
  95	 188
  95	 201
  95	 204
  95	 205
  95	 216
  95	 235
  95	 246
  96	 103
  96	 109
  96	 115
  96	 117
  96	 125
  96	 129
  96	 136
  96	 138
  96	 143
  96	 158
  96	 163
  96	 193
  96	 240
  97	 112
  97	 114
  97	 120
  97	 125
  97	 158
  97	 159
  97	 171
  97	 176
  97	 179
  97	 185
  97	 190
  97	 200
  97	 210
  97	 212
  97	 215
  97	 227
  97	 233
  97	 237
  98	  99
  98	 119
  98	 123
  98	 139
  98	 153
  98	 161
  98	 165
  98	 171
  98	 181
  98	 182
  98	 186
  98	 203
  98	 205
  98	 215
  98	 218
  98	 220
  98	 227
  98	 229
  98	 237
  98	 247
  98	 248
  99	 115
  99	 119
  99	 123
  99	 125
  99	 158
  99	 204
  99	 209
  99	 210
  99	 211
  99	 224
 100	 104
 100	 105
 100	 116
 100	 117
 100	 120
 100	 128
 100	 150
 100	 158
 100	 171
 100	 195
 100	 200
 100	 215
 100	 218
 100	 225
 100	 228
 100	 242
 100	 248
 101	 121
 101	 123
 101	 131
 101	 137
 101	 161
 101	 163
 101	 170
 101	 171
 101	 175
 101	 202
 101	 248
 102	 103
 102	 107
 102	 113
 102	 114
 102	 120
 102	 121
 102	 122
 102	 129
 102	 164
 102	 168
 102	 181
 102	 184
 102	 189
 102	 193
 102	 201
 102	 213
 102	 216
 102	 240
 103	 110
 103	 113
 103	 115
 103	 136
 103	 151
 103	 160
 103	 161
 103	 176
 103	 181
 103	 195
 103	 200
 103	 206
 103	 207
 103	 214
 103	 217
 103	 219
 103	 247
 104	 116
 104	 126
 104	 127
 104	 142
 104	 177
 104	 194
 104	 202
 104	 208
 104	 213
 104	 221
 104	 229
 104	 237
 104	 240
 104	 245
 104	 248
 105	 107
 105	 111
 105	 129
 105	 134
 105	 153
 105	 156
 105	 160
 105	 164
 105	 180
 105	 192
 105	 208
 105	 216
 105	 220
 105	 232
 105	 236
 106	 114
 106	 126
 106	 129
 106	 130
 106	 144
 106	 148
 106	 149
 106	 177
 106	 184
 106	 191
 106	 203
 106	 204
 106	 223
 106	 225
 106	 248
 107	 111
 107	 121
 107	 135
 107	 137
 107	 138
 107	 154
 107	 167
 107	 185
 107	 194
 107	 198
 107	 216
 107	 219
 107	 239
 107	 242
 108	 110
 108	 112
 108	 118
 108	 121
 108	 127
 108	 128
 108	 132
 108	 154
 108	 161
 108	 176
 108	 194
 108	 206
 108	 210
 108	 211
 108	 216
 108	 222
 108	 234
 109	 114
 109	 123
 109	 132
 109	 137
 109	 147
 109	 155
 109	 162
 109	 165
 109	 182
 109	 188
 109	 194
 109	 195
 109	 197
 109	 198
 109	 199
 109	 205
 109	 218
 110	 112
 110	 118
 110	 119
 110	 124
 110	 134
 110	 157
 110	 158
 110	 167
 110	 174
 110	 181
 110	 189
 110	 190
 110	 193
 110	 213
 110	 215
 110	 227
 110	 234
 110	 236
 110	 240
 111	 128
 111	 133
 111	 147
 111	 149
 111	 150
 111	 161
 111	 172
 111	 174
 111	 175
 111	 198
 111	 224
 112	 113
 112	 144
 112	 161
 112	 162
 112	 173
 112	 182
 112	 213
 112	 216
 112	 224
 112	 246
 113	 127
 113	 146
 113	 148
 113	 154
 113	 161
 113	 162
 113	 165
 113	 172
 113	 189
 113	 196
 113	 200
 113	 226
 113	 228
 113	 238
 113	 246
 114	 120
 114	 131
 114	 143
 114	 149
 114	 155
 114	 159
 114	 160
 114	 171
 114	 174
 114	 186
 114	 190
 114	 197
 114	 203
 114	 221
 114	 225
 114	 226
 114	 232
 114	 248
 115	 124
 115	 126
 115	 173
 115	 177
 115	 205
 115	 219
 116	 120
 116	 129
 116	 130
 116	 134
 116	 137
 116	 146
 116	 147
 116	 150
 116	 156
 116	 157
 116	 162
 116	 164
 116	 165
 116	 182
 116	 190
 116	 196
 116	 198
 116	 199
 116	 207
 116	 234
 116	 237
 116	 244
 117	 129
 117	 131
 117	 149
 117	 173
 117	 177
 117	 191
 117	 196
 117	 201
 117	 212
 117	 224
 117	 227
 117	 232
 118	 121
 118	 124
 118	 135
 118	 144
 118	 167
 118	 175
 118	 198
 118	 211
 118	 213
 118	 217
 118	 228
 118	 241
 118	 246
 119	 126
 119	 127
 119	 144
 119	 163
 119	 182
 119	 183
 119	 215
 119	 221
 119	 223
 119	 230
 120	 126
 120	 136
 120	 153
 120	 158
 120	 166
 120	 169
 120	 188
 120	 193
 120	 195
 121	 123
 121	 131
 121	 139
 121	 140
 121	 142
 121	 147
 121	 172
 121	 174
 121	 184
 121	 186
 121	 187
 121	 209
 121	 210
 121	 211
 121	 214
 121	 235
 121	 246
 122	 128
 122	 134
 122	 143
 122	 153
 122	 165
 122	 175
 122	 178
 122	 219
 122	 222
 122	 233
 122	 242
 122	 245
 123	 129
 123	 138
 123	 157
 123	 172
 123	 180
 123	 200
 123	 209
 123	 223
 123	 226
 123	 228
 123	 235
 123	 240
 124	 134
 124	 140
 124	 142
 124	 147
 124	 150
 124	 163
 124	 167
 124	 172
 124	 173
 124	 174
 124	 194
 124	 199
 124	 201
 124	 207
 124	 217
 124	 219
 124	 226
 124	 227
 124	 229
 124	 248
 125	 129
 125	 136
 125	 155
 125	 156
 125	 157
 125	 158
 125	 162
 125	 183
 125	 184
 125	 195
 125	 213
 125	 216
 125	 229
 125	 230
 125	 236
 125	 247
 125	 248
 126	 127
 126	 128
 126	 129
 126	 137
 126	 138
 126	 140
 126	 143
 126	 152
 126	 154
 126	 173
 126	 179
 126	 181
 126	 186
 126	 203
 126	 212
 126	 214
 126	 233
 127	 155
 127	 170
 127	 172
 127	 177
 127	 204
 127	 235
 127	 239
 127	 245
 128	 155
 128	 156
 128	 171
 128	 173
 128	 174
 128	 183
 128	 191
 128	 208
 128	 211
 128	 222
 128	 228
 128	 230
 128	 232
 128	 234
 128	 240
 129	 131
 129	 148
 129	 167
 129	 176
 129	 185
 129	 189
 129	 203
 129	 214
 129	 218
 129	 231
 129	 234
 129	 237
 129	 245
 130	 131
 130	 134
 130	 136
 130	 148
 130	 156
 130	 166
 130	 169
 130	 217
 130	 219
 130	 226
 130	 234
 130	 245
 130	 246
 131	 152
 131	 159
 131	 174
 131	 224
 131	 227
 132	 142
 132	 156
 132	 161
 132	 192
 132	 199
 132	 206
 132	 207
 132	 228
 132	 246
 133	 135
 133	 142
 133	 158
 133	 181
 133	 194
 133	 202
 133	 211
 133	 225
 134	 137
 134	 140
 134	 141
 134	 142
 134	 159
 134	 161
 134	 163
 134	 168
 134	 174
 134	 179
 134	 199
 134	 211
 134	 218
 134	 220
 134	 227
 134	 233
 134	 240
 135	 141
 135	 143
 135	 145
 135	 152
 135	 154
 135	 157
 135	 171
 135	 189
 135	 194
 135	 211
 135	 215
 135	 216
 135	 236
 135	 239
 136	 171
 136	 174
 136	 191
 136	 194
 136	 197
 136	 213
 136	 216
 136	 223
 136	 246
 137	 139
 137	 144
 137	 158
 137	 161
 137	 168
 137	 177
 137	 186
 137	 187
 137	 189
 137	 201
 137	 205
 137	 213
 137	 219
 137	 224
 137	 235
 138	 149
 138	 152
 138	 163
 138	 165
 138	 172
 138	 180
 138	 187
 138	 196
 138	 202
 138	 219
 138	 228
 138	 241
 138	 246
 139	 146
 139	 151
 139	 159
 139	 190
 139	 191
 139	 212
 139	 216
 139	 221
 139	 248
 140	 148
 140	 155
 140	 171
 140	 179
 140	 191
 140	 192
 140	 212
 140	 216
 140	 222
 140	 227
 140	 236
 141	 145
 141	 154
 141	 164
 141	 166
 141	 181
 141	 182
 141	 187
 141	 195
 141	 211
 141	 212
 141	 215
 141	 218
 141	 219
 141	 226
 141	 228
 141	 236
 142	 143
 142	 174
 142	 176
 142	 211
 142	 216
 142	 233
 142	 244
 142	 246
 143	 161
 143	 167
 143	 168
 143	 172
 143	 187
 143	 213
 143	 218
 143	 248
 144	 164
 144	 165
 144	 166
 144	 171
 144	 185
 144	 197
 144	 201
 144	 205
 144	 212
 145	 149
 145	 164
 145	 165
 145	 175
 145	 182
 145	 183
 145	 189
 145	 203
 145	 212
 145	 217
 145	 223
 145	 224
 145	 226
 145	 229
 145	 239
 145	 248
 146	 173
 146	 178
 146	 180
 146	 196
 146	 205
 146	 207
 146	 215
 146	 219
 146	 233
 147	 175
 147	 183
 147	 187
 147	 213
 148	 150
 148	 157
 148	 174
 148	 195
 148	 198
 148	 236
 148	 241
 149	 152
 149	 156
 149	 160
 149	 172
 149	 189
 149	 213
 149	 230
 149	 234
 150	 154
 150	 169
 150	 171
 150	 186
 150	 190
 150	 195
 150	 199
 150	 208
 150	 232
 150	 234
 150	 240
 150	 245
 151	 167
 151	 216
 151	 244
 152	 162
 152	 166
 152	 167
 152	 170
 152	 180
 152	 190
 152	 207
 152	 216
 152	 228
 152	 233
 152	 245
 153	 156
 153	 161
 153	 166
 153	 181
 153	 201
 153	 202
 153	 213
 153	 221
 153	 237
 153	 239
 154	 168
 154	 201
 154	 206
 154	 210
 154	 222
 154	 231
 155	 156
 155	 159
 155	 172
 155	 180
 155	 182
 155	 197
 155	 199
 155	 200
 155	 204
 155	 214
 155	 220
 156	 169
 156	 186
 156	 193
 156	 204
 156	 223
 156	 233
 156	 242
 157	 161
 157	 164
 157	 175
 157	 179
 157	 205
 157	 211
 157	 219
 157	 221
 157	 227
 157	 229
 157	 232
 157	 245
 158	 167
 158	 174
 158	 176
 158	 185
 158	 188
 158	 191
 158	 203
 158	 211
 158	 219
 158	 246
 159	 197
 159	 198
 159	 203
 159	 213
 159	 221
 159	 225
 159	 228
 159	 233
 159	 243
 159	 244
 159	 246
 160	 166
 160	 188
 160	 189
 160	 192
 160	 198
 160	 205
 160	 214
 160	 229
 160	 246
 161	 166
 161	 177
 161	 186
 161	 195
 161	 197
 161	 199
 161	 224
 162	 192
 162	 211
 162	 231
 162	 242
 163	 170
 163	 187
 163	 213
 163	 240
 163	 243
 164	 214
 164	 220
 164	 222
 164	 234
 164	 244
 165	 193
 165	 195
 165	 196
 165	 205
 165	 210
 165	 211
 165	 219
 165	 228
 165	 239
 166	 182
 166	 188
 166	 191
 166	 195
 166	 221
 166	 239
 167	 178
 167	 181
 167	 193
 167	 206
 167	 208
 167	 215
 167	 221
 167	 232
 167	 238
 167	 248
 168	 170
 168	 180
 168	 191
 168	 196
 168	 197
 168	 200
 168	 216
 168	 228
 169	 179
 169	 195
 169	 196
 169	 203
 169	 205
 169	 206
 169	 225
 169	 231
 169	 234
 169	 237
 170	 175
 170	 191
 170	 210
 170	 216
 170	 235
 170	 237
 170	 244
 170	 247
 171	 174
 171	 183
 171	 207
 171	 211
 171	 214
 171	 225
 171	 227
 171	 230
 171	 231
 171	 242
 172	 175
 172	 176
 172	 177
 172	 195
 172	 205
 172	 217
 172	 223
 172	 243
 172	 247
 173	 176
 173	 192
 173	 212
 173	 227
 174	 184
 174	 196
 174	 198
 174	 219
 174	 225
 174	 239
 174	 248
 175	 188
 175	 189
 175	 196
 175	 209
 175	 214
 175	 222
 175	 228
 175	 241
 175	 246
 175	 247
 176	 191
 176	 194
 176	 214
 176	 216
 176	 245
 177	 198
 177	 204
 177	 213
 177	 215
 177	 234
 177	 244
 178	 195
 178	 211
 178	 216
 178	 221
 178	 233
 178	 237
 178	 240
 179	 190
 179	 201
 179	 222
 179	 237
 180	 190
 180	 199
 180	 205
 180	 217
 180	 247
 181	 183
 181	 185
 181	 188
 181	 196
 181	 232
 181	 240
 181	 243
 182	 183
 182	 189
 182	 195
 182	 228
 182	 232
 182	 237
 182	 239
 182	 240
 182	 248
 183	 192
 183	 195
 183	 209
 183	 228
 184	 201
 184	 208
 184	 214
 184	 242
 185	 191
 185	 203
 185	 208
 185	 209
 185	 211
 185	 214
 185	 224
 185	 226
 185	 231
 185	 233
 185	 234
 185	 243
 185	 246
 186	 190
 186	 206
 186	 213
 186	 221
 186	 227
 186	 234
 186	 241
 187	 188
 187	 192
 187	 194
 187	 197
 187	 200
 187	 209
 187	 218
 188	 210
 188	 218
 189	 191
 189	 192
 189	 196
 189	 199
 189	 204
 189	 225
 189	 227
 189	 231
 189	 233
 189	 235
 189	 236
 189	 244
 190	 202
 190	 211
 190	 221
 190	 223
 190	 229
 190	 230
 190	 242
 191	 192
 191	 214
 191	 226
 191	 234
 191	 239
 191	 246
 192	 195
 192	 203
 192	 208
 192	 214
 192	 216
 192	 227
 192	 232
 192	 233
 193	 216
 193	 228
 193	 231
 193	 239
 194	 207
 194	 208
 194	 209
 194	 245
 195	 234
 195	 236
 196	 224
 196	 226
 196	 241
 196	 246
 197	 203
 197	 205
 197	 211
 197	 223
 197	 227
 197	 245
 198	 199
 198	 200
 198	 225
 198	 248
 199	 203
 199	 205
 199	 207
 199	 212
 199	 215
 199	 232
 199	 245
 199	 248
 200	 205
 200	 214
 200	 216
 200	 217
 200	 227
 200	 230
 200	 232
 200	 233
 201	 218
 201	 219
 201	 230
 201	 240
 201	 241
 202	 212
 202	 213
 203	 207
 203	 222
 203	 232
 203	 241
 203	 244
 204	 226
 204	 228
 205	 218
 205	 231
 205	 235
 205	 236
 205	 238
 205	 240
 205	 247
 205	 248
 206	 216
 206	 227
 206	 233
 206	 234
 206	 244
 207	 210
 207	 221
 207	 223
 207	 224
 207	 231
 207	 237
 208	 210
 208	 228
 208	 235
 208	 241
 208	 246
 209	 212
 209	 216
 209	 217
 209	 230
 211	 229
 211	 240
 211	 244
 212	 219
 213	 232
 213	 239
 213	 248
 214	 221
 214	 232
 214	 236
 214	 247
 215	 217
 215	 220
 215	 224
 216	 239
 216	 247
 217	 221
 217	 226
 217	 235
 217	 239
 218	 230
 218	 240
 219	 227
 219	 229
 219	 235
 220	 228
 220	 236
 221	 238
 221	 239
 221	 243
 222	 224
 222	 225
 222	 242
 223	 234
 223	 245
 224	 230
 224	 232
 224	 237
 225	 239
 225	 240
 226	 228
 226	 237
 226	 239
 227	 229
 227	 234
 227	 241
 227	 244
 228	 243
 228	 247
 229	 236
 229	 237
 229	 248
 230	 234
 230	 237
 230	 246
 232	 235
 233	 242
 234	 237
 236	 237
 237	 247
 238	 240
 238	 246
 239	 242
 243	 245
;
